Set parameter Username
Academic license - for non-commercial use only - expires 2022-05-11
Set parameter MIPGap to value 0.04
Set parameter LazyConstraints to value 1
Warning: linear constraint 5634 and linear constraint 5814 have the same name "pos_upper[0]"
Gurobi Optimizer version 9.5.0 build v9.5.0rc5 (win64)
Thread count: 6 physical cores, 12 logical processors, using up to 12 threads
Optimize a model with 6714 rows, 129763 columns and 19938 nonzeros
Model fingerprint: 0xf88d1600
Variable types: 1040 continuous, 128723 integer (128363 binary)
Coefficient statistics:
  Matrix range     [5e-01, 9e+02]
  Objective range  [1e+00, 1e+00]
  Bounds range     [1e+00, 1e+00]
  RHS range        [1e+00, 9e+02]
Presolve removed 2186 rows and 545 columns
Presolve time: 0.08s
Presolved: 4528 rows, 129218 columns, 13325 nonzeros
Variable types: 1016 continuous, 128202 integer (128013 binary)
Found heuristic solution: objective 522.0000000

Root relaxation: objective 3.209683e+00, 1302 iterations, 0.02 seconds (0.02 work units)

    Nodes    |    Current Node    |     Objective Bounds      |     Work
 Expl Unexpl |  Obj  Depth IntInf | Incumbent    BestBd   Gap | It/Node Time

     0     0    3.20968    0  554  522.00000    3.20968  99.4%     -    0s
     0     0   30.86164    0  871  522.00000   30.86164  94.1%     -    0s
     0     0   32.26402    0  884  522.00000   32.26402  93.8%     -    1s
     0     0   38.58030    0  865  522.00000   38.58030  92.6%     -    1s
     0     0   39.88899    0  869  522.00000   39.88899  92.4%     -    1s
     0     0   39.93179    0  868  522.00000   39.93179  92.4%     -    1s
     0     0   39.93380    0  869  522.00000   39.93380  92.3%     -    1s
     0     0   42.33784    0  855  522.00000   42.33784  91.9%     -    1s
     0     0   42.48934    0  860  522.00000   42.48934  91.9%     -    1s
     0     0   42.51769    0  859  522.00000   42.51769  91.9%     -    1s
     0     0   42.53641    0  861  522.00000   42.53641  91.9%     -    1s
     0     0   42.86427    0  866  522.00000   42.86427  91.8%     -    1s
     0     0   42.95907    0  868  522.00000   42.95907  91.8%     -    1s
     0     0   42.99566    0  866  522.00000   42.99566  91.8%     -    2s
     0     0   43.35492    0  866  522.00000   43.35492  91.7%     -    2s
     0     0   43.39163    0  864  522.00000   43.39163  91.7%     -    2s
     0     0   43.39629    0  868  522.00000   43.39629  91.7%     -    2s
     0     0   43.58768    0  861  522.00000   43.58768  91.6%     -    2s
     0     0   43.64199    0  860  522.00000   43.64199  91.6%     -    2s
     0     0   43.64199    0  861  522.00000   43.64199  91.6%     -    2s
     0     0   43.72005    0  857  522.00000   43.72005  91.6%     -    2s
     0     0   43.75882    0  857  522.00000   43.75882  91.6%     -    2s
     0     0   43.75882    0  844  522.00000   43.75882  91.6%     -    2s
     0     2   43.75882    0  844  522.00000   43.75882  91.6%     -    3s
   312   332   75.17848   51  745  522.00000   43.83767  91.6%   5.4    5s
  1687  1786  217.50543  220  292  522.00000   43.83767  91.6%   7.7   10s
  2979  3149  319.00000  365   41  522.00000   43.83767  91.6%   6.8   15s
H 3164  3336                     500.0000000   43.83767  91.2%   6.6   15s
H 3228  3336                     494.0000000   43.83767  91.1%   6.5   15s
H 3364  3439                     362.0000000   43.83767  87.9%   6.4   17s
  4032  4226  189.01314  139  443  362.00000   43.83767  87.9%   6.4   20s
H 4564  4701                     361.0000000   43.83767  87.9%   6.3   21s
H 5034  4888                     354.0000000   43.83864  87.6%   6.0   23s
  5287  5335   88.38919   57  729  354.00000   43.83864  87.6%   5.9   25s
H 5537  5070                     345.0000000  141.81091  58.9%   6.0   26s
H 5537  4816                     318.0000000  141.81091  55.4%   6.0   27s
  5563  4834  240.47989  103  246  318.00000  240.47989  24.4%   6.0   30s
H 5612  4621                     269.9999993  250.17482  7.34%   5.9   35s
H 5624  4396                     258.9999990  250.56055  3.26%   5.9   39s

Cutting planes:
  Gomory: 179
  Cover: 5
  Clique: 1
  MIR: 177
  Flow cover: 533
  Inf proof: 1
  Zero half: 2
  RLT: 76
  Relax-and-lift: 6
  Lazy constraints: 297

Explored 5624 nodes (53376 simplex iterations) in 39.04 seconds (27.60 work units)
Thread count was 12 (of 12 available processors)

Solution count 10: 259 270 318 ... 522

Optimal solution found (tolerance 4.00e-02)
Best objective 2.589999990155e+02, best bound 2.505605497338e+02, gap 3.2585%